* SDPA sparse format data
* File name = st_e10.dat-s
* mDim =  10, nBlock =  7
* size of bVect = 1 *  10
* size of sparseMatrix =   57 * 5
 10
  7
-2 -3  4  3  3  3  3 
  -1.0000000000   -0.8750000000    0.0000000000    0.0000000000    0.3750000000    0.0000000000    0.0000000000    0.0000000000    0.0000000000    0.0000000000 
  0   1   1   1   -0.0625000000
 10   1   1   1   -1.0000000000
  2   1   1   1   -0.0937500000
  0   1   2   2    0.0625000000
 10   1   2   2    1.0000000000
  2   1   2   2    0.0937500000
  4   2   1   1    1.0000000000
  5   2   2   2   -1.0000000000
  0   2   2   2   -1.0000000000
 10   2   3   3   -1.0000000000
  0   2   3   3   -1.0000000000
  0   3   1   1   -1.0000000000
  1   3   1   2    1.0000000000
  2   3   1   3    1.0000000000
  3   3   1   4    1.0000000000
  3   3   2   2    1.0000000000
  4   3   2   3    1.0000000000
  6   3   2   4    1.0000000000
  5   3   3   3    1.0000000000
  7   3   3   4    1.0000000000
 10   3   4   4    1.0000000000
  1   4   1   1    1.0000000000
  3   4   1   2    1.0000000000
  4   4   1   3    1.0000000000
  6   4   2   2    1.0000000000
  7   4   2   3    1.0000000000
  8   4   3   3    1.0000000000
  2   5   1   1    1.0000000000
  4   5   1   2    1.0000000000
  5   5   1   3    1.0000000000
  7   5   2   2    1.0000000000
  8   5   2   3    1.0000000000
  9   5   3   3    1.0000000000
  0   6   1   1   -1.0000000000
  1   6   1   1   -1.0000000000
  1   6   1   2    1.0000000000
  3   6   1   2   -1.0000000000
  2   6   1   3    1.0000000000
  4   6   1   3   -1.0000000000
  3   6   2   2    1.0000000000
  6   6   2   2   -1.0000000000
  4   6   2   3    1.0000000000
  7   6   2   3   -1.0000000000
  5   6   3   3    1.0000000000
  8   6   3   3   -1.0000000000
  0   7   1   1   -1.0000000000
  2   7   1   1   -1.0000000000
  1   7   1   2    1.0000000000
  4   7   1   2   -1.0000000000
  2   7   1   3    1.0000000000
  5   7   1   3   -1.0000000000
  3   7   2   2    1.0000000000
  7   7   2   2   -1.0000000000
  4   7   2   3    1.0000000000
  8   7   2   3   -1.0000000000
  5   7   3   3    1.0000000000
  9   7   3   3   -1.0000000000
